S = 5;
start = [|0,0,10,18,16,0,0,2,0,0,0,0,0,13,0,0,0,24,0,0,20,0,0,14,11|
7,13,24,14,0,0,0,0,0,0,0,3,0,0,10,1,20,0,0,4,0,0,0,0,0|
0,0,0,12,0,0,13,0,0,14,0,20,0,18,0,0,0,17,16,0,0,0,0,10,24|
0,0,0,2,0,0,0,5,20,0,8,0,0,21,25,0,0,0,0,0,0,0,0,0,13|
0,6,0,0,8,0,16,3,0,0,0,0,24,0,0,0,0,0,0,0,19,0,0,0,0|
22,8,0,0,0,0,0,13,16,0,0,12,11,0,0,0,0,1,0,0,0,0,19,0,10|
0,0,0,11,0,0,4,0,0,0,0,0,0,0,0,0,0,0,0,0,0,7,0,0,0|
0,0,0,0,12,0,0,0,24,0,0,0,0,0,0,0,5,16,0,25,0,0,0,0,0|
0,0,0,0,13,0,0,0,0,0,0,0,0,0,0,0,23,9,0,0,0,0,0,0,0|
0,0,0,0,0,5,25,9,0,0,0,10,0,22,2,11,4,0,0,0,12,0,0,0,23|
0,2,0,10,14,0,0,11,17,0,25,15,0,3,0,7,0,22,0,16,5,0,13,0,0|
0,0,0,0,0,25,7,0,0,0,11,0,0,0,18,0,0,19,1,0,4,0,0,22,0|
0,20,0,0,0,0,0,0,0,0,0,5,7,1,0,0,0,0,14,0,0,0,24,0,25|
13,25,0,0,15,0,0,0,12,0,0,22,0,0,14,21,0,5,0,6,0,19,0,7,3|
3,0,11,0,0,0,0,0,5,0,0,0,0,0,0,13,0,0,0,0,23,0,18,21,9|
0,0,0,0,17,0,23,25,0,0,0,2,0,0,3,0,0,0,0,0,0,13,0,0,0|
14,0,0,0,6,3,0,0,0,0,16,0,0,15,0,0,0,0,5,0,0,17,0,0,0|
0,5,23,0,11,2,0,0,0,16,0,0,1,0,21,0,0,15,0,8,0,10,9,0,0|
0,10,0,3,0,0,0,6,0,0,19,0,5,0,0,0,0,0,0,0,0,0,0,0,21|
0,0,0,0,1,0,17,21,0,0,14,0,0,10,0,18,7,0,13,24,2,0,0,0,0|
16,4,0,0,7,15,8,0,0,0,0,0,23,25,0,0,3,0,11,0,0,14,0,19,0|
0,11,2,15,0,0,0,0,0,22,0,0,0,0,7,5,0,0,0,13,0,3,20,0,0|
0,22,0,1,20,13,0,0,0,19,9,11,0,0,0,0,0,0,17,0,0,0,0,0,0|
0,0,13,0,0,0,0,4,6,0,0,0,0,0,0,0,12,14,0,0,16,9,0,0,0|
0,0,0,25,19,0,0,0,0,0,0,1,10,0,20,4,9,0,0,15,0,0,22,0,8|];